BAYES
27
2 3 4 4 2 4 3 4 5 3 4 2 3 2 4 2 5 4 2 4 4 2 4 4 2 4 3
27
3 2 1 0
1 1
2 1 2
3 1 2 3
3 2 3 4
3 7 6 5
3 8 4 6
4 11 10 9 7
3 2 3 8
3 12 3 9
1 10
3 8 4 11
3 1 13 12
3 1 3 13
4 5 16 15 14
4 18 17 16 15
4 8 4 10 16
3 3 2 17
3 3 2 18
3 20 14 19
3 7 6 20
2 2 21
4 7 1 23 22
3 6 24 23
3 8 4 24
2 7 25
3 12 3 26

24
0.1 0.9 0.2 0.8 0.5 0.5 0.4 0.6 0.0 1.0 0.0 1.0 0.0 1.0 0.0 1.0 0.0 1.0 0.0 1.0 0.0 1.0 0.0 1.0
3
0.2 0.6 0.2
12
0.4 0.4 0.19 0.01 0.4 0.4 0.19 0.01 0.5 0.2 0.29 0.01
48
0.02 0.58 0.3 0.1 0.015 0.285 0.5 0.2 0.01 0.09 0.4 0.5 0.02 0.38 0.5 0.1 0.015 0.185 0.6 0.2 0.01 0.04 0.35 0.6 0.02 0.48 0.4 0.1 0.015 0.285 0.5 0.2 0.01 0.09 0.4 0.5 0.02 0.58 0.3 0.1 0.015 0.285 0.4 0.3 0.01 0.09 0.4 0.5
32
0.15 0.85 0.3 0.7 0.8 0.2 0.9 0.1 0.15 0.85 0.3 0.7 0.8 0.2 0.9 0.1 0.15 0.85 0.3 0.7 0.8 0.2 0.9 0.1 0.15 0.85 0.3 0.7 0.8 0.2 0.9 0.1
48
1.0 0.0 0.0 0.0 0.001 0.9 0.098 0.001 1e-06 0.000999 0.7 0.299 1e-06 9e-06 9e-05 0.9999 1.0 0.0 0.0 0.0 0.2 0.75 0.049999 1e-06 0.001 0.099 0.8 0.1 1e-06 0.000999 0.009 0.99 1.0 0.0 0.0 0.0 0.7 0.29 0.009999 1e-06 0.05 0.6 0.3 0.05 0.05 0.2 0.2 0.55
30
0.95 0.04 0.01 0.5 0.5 0.0 0.2 0.6 0.2 0.1 0.6 0.3 0.05 0.55 0.4 0.95 0.04 0.01 0.9 0.1 0.0 0.05 0.55 0.4 0.1 0.6 0.3 0.05 0.55 0.4
96
0.7 0.2 0.07 0.03 0.6 0.2 0.1 0.1 0.4 0.3 0.2 0.1 0.3 0.2 0.2 0.3 0.3 0.3 0.2 0.2 0.2 0.2 0.2 0.4 0.2 0.2 0.3 0.3 0.1 0.1 0.3 0.5 0.99 0.007 0.002 0.001 0.98 0.01 0.005 0.005 0.98 0.01 0.005 0.005 0.96 0.02 0.015 0.005 0.97 0.02 0.007 0.003 0.95 0.03 0.015 0.005 0.95 0.03 0.01 0.01 0.94 0.03 0.02 0.01 0.999 0.0007 0.0002 0.0001 0.995 0.003 0.001 0.001 0.995 0.003 0.001 0.001 0.99 0.007 0.002 0.001 0.99 0.007 0.002 0.001 0.98 0.01 0.005 0.005 0.985 0.01 0.003 0.002 0.98 0.01 0.007 0.003
80
0.1 0.7 0.2 0.0 0.0 0.15 0.2 0.65 0.0 0.0 0.2 0.05 0.3 0.45 0.0 0.3 0.01 0.09 0.4 0.2 0.1 0.7 0.2 0.0 0.0 0.15 0.2 0.65 0.0 0.0 0.2 0.05 0.3 0.45 0.0 0.3 0.01 0.09 0.4 0.2 0.1 0.7 0.2 0.0 0.0 0.15 0.2 0.65 0.0 0.0 0.2 0.05 0.3 0.45 0.0 0.3 0.01 0.09 0.4 0.2 0.1 0.7 0.2 0.0 0.0 0.15 0.2 0.65 0.0 0.0 0.2 0.05 0.3 0.45 0.0 0.3 0.01 0.09 0.4 0.2
36
1.0 0.0 0.0 0.5 0.2 0.3 0.3 0.2 0.5 1.0 0.0 0.0 0.3 0.4 0.3 0.01 0.01 0.98 1.0 0.0 0.0 0.0 1.0 0.0 0.0 0.0 1.0 1.0 0.0 0.0 0.0 0.8 0.2 0.0 0.0 1.0
4
0.1 0.4 0.4 0.1
20
0.9 0.1 0.001 0.999 0.4 0.6 0.99 0.01 0.99 0.01 0.1 0.9 0.0 1.0 0.0 1.0 0.3 0.7 0.15 0.85
18
0.5 0.45 0.05 0.3 0.6 0.1 0.1 0.6 0.3 0.5 0.45 0.05 0.3 0.6 0.1 0.4 0.5 0.1
24
0.0 1.0 0.0 1.0 1e-06 0.999999 0.0 1.0 0.0 1.0 1e-06 0.999999 0.0 1.0 0.0 1.0 0.3 0.7 0.0 1.0 0.0 1.0 0.9 0.1
160
0.2 0.8 0.0 0.0 0.15 0.85 0.0 0.0 0.05 0.95 0.0 0.0 0.03 0.97 0.0 0.0 0.05 0.95 0.0 0.0 0.03 0.97 0.0 0.0 0.01 0.99 0.0 0.0 1e-06 0.999999 0.0 0.0 0.04 0.01 0.95 0.0 0.03 0.02 0.95 0.0 0.001 0.001 0.998 0.0 1e-06 1e-06 0.999998 0.0 0.04 0.01 0.95 0.0 0.03 0.02 0.95 0.0 0.001 0.001 0.998 0.0 1e-06 1e-06 0.999998 0.0 0.04 0.01 0.2 0.75 0.02 0.03 0.25 0.7 0.001 0.001 0.018 0.98 1e-06 1e-06 0.009998 0.99 1.0 0.0 0.0 0.0 0.95 0.05 0.0 0.0 0.25 0.75 0.0 0.0 0.05 0.95 0.0 0.0 1.0 0.0 0.0 0.0 0.95 0.05 0.0 0.0 0.15 0.85 0.0 0.0 0.01 0.99 0.0 0.0 1.0 0.0 0.0 0.0 0.99 0.01 0.0 0.0 0.01 0.01 0.98 0.0 0.005 0.005 0.99 0.0 1.0 0.0 0.0 0.0 0.99 0.01 0.0 0.0 0.005 0.005 0.99 0.0 0.001 0.001 0.998 0.0 1.0 0.0 0.0 0.0 0.98 0.01 0.01 0.0 0.003 0.003 0.044 0.95 1e-06 1e-06 0.029998 0.97
80
1e-06 0.999999 1e-06 0.999999 0.0005 0.9995 0.001 0.999 1e-05 0.99999 1e-05 0.99999 1e-05 0.99999 1e-05 0.99999 2e-06 0.999998 2e-06 0.999998 0.002 0.998 0.005 0.995 0.0001 0.9999 0.0002 0.9998 2e-05 0.99998 0.0001 0.9999 3e-06 0.999997 3e-06 0.999997 0.005 0.995 0.01 0.99 0.0003 0.9997 0.0005 0.9995 5e-05 0.99995 0.0002 0.9998 2e-06 0.999998 2e-06 0.999998 0.005 0.995 0.01 0.99 0.0003 0.9997 0.0005 0.9995 5e-05 0.99995 0.0002 0.9998 1e-06 0.999999 1e-06 0.999999 1e-06 0.999999 1e-06 0.999999 1e-06 0.999999 1e-06 0.999999 1e-06 0.999999 1e-06 0.999999
200
0.0 0.1 0.8 0.09 0.01 0.1 0.8 0.1 0.0 0.0 0.0 0.1 0.9 0.0 0.0 0.0 0.0 0.0 1.0 0.0 0.0 0.0 0.0 0.0 1.0 0.03 0.3 0.6 0.06 0.01 0.25 0.7 0.05 0.0 0.0 0.2 0.3 0.5 0.0 0.0 0.01 0.09 0.2 0.7 0.0 1e-06 1e-06 1e-06 1e-06 0.999996 0.0 0.1 0.8 0.09 0.01 0.1 0.8 0.1 0.0 0.0 0.0 0.1 0.9 0.0 0.0 0.0 0.0 0.0 1.0 0.0 0.0 0.0 0.0 0.0 1.0 0.16 0.5 0.3 0.03 0.01 0.7 0.2999 0.0001 0.0 0.0 0.5 0.3 0.2 0.0 0.0 0.05 0.15 0.3 0.5 0.0 1e-06 1e-06 1e-06 1e-06 0.999996 0.0 0.1 0.8 0.09 0.01 0.1 0.8 0.1 0.0 0.0 0.0 0.1 0.9 0.0 0.0 0.0 0.0 0.0 1.0 0.0 0.0 0.0 0.0 0.0 1.0 0.4 0.47 0.1 0.02 0.01 0.99 0.009999 1e-06 0.0 0.0 0.7 0.2 0.1 0.0 0.0 0.1 0.3 0.3 0.3 0.0 1e-06 1e-06 1e-06 1e-06 0.999996 0.0 0.1 0.8 0.09 0.01 0.1 0.8 0.1 0.0 0.0 0.0 0.1 0.9 0.0 0.0 0.0 0.0 0.0 1.0 0.0 0.0 0.0 0.0 0.0 1.0 0.9 0.06 0.02 0.01 0.01 0.999998 1e-06 1e-06 0.0 0.0 0.99 0.009999 1e-06 0.0 0.0 0.2 0.2 0.3 0.3 0.0 1e-06 1e-06 1e-06 1e-06 0.999996
64
1e-06 0.8 0.049999 0.15 1e-06 0.8 0.05 0.149999 1e-06 0.8 0.05 0.149999 1e-06 0.8 0.05 0.149999 0.15 0.8 0.04 0.01 0.01 0.25 0.6 0.14 0.299999 1e-06 0.6 0.1 0.95 1e-06 0.024445 0.025554 0.35 0.6 0.04 0.01 0.2 0.4 0.3 0.1 0.5 1e-06 0.4 0.099999 0.999997 1e-06 1e-06 1e-06 0.489999 0.5 1e-06 0.01 0.95 1e-06 1e-06 0.049998 0.85 1e-06 0.001 0.148999 0.999997 1e-06 1e-06 1e-06
32
1e-06 0.999999 1e-06 0.999999 0.1 0.9 0.95 0.05 1e-06 0.999999 1e-06 0.999999 0.3 0.7 0.999999 1e-06 0.05 0.95 0.2 0.8 0.9 0.1 0.999999 1e-06 0.5 0.5 0.5 0.5 0.8 0.2 0.999999 1e-06
64
0.7 0.3 0.0 0.0 0.0 0.95 0.05 0.0 0.0 0.0 0.98 0.02 0.0 0.0 0.0 1.0 0.0 0.95 0.05 0.0 0.0 0.6 0.4 0.0 0.0 0.0 0.8 0.2 0.0 0.0 0.0 1.0 0.0 0.0 0.98 0.02 0.0 0.0 0.95 0.05 0.0 0.0 0.6 0.4 0.0 0.0 0.0 1.0 0.0 0.0 0.0 1.0 0.0 0.0 0.0 1.0 0.0 0.0 0.0 1.0 0.0 0.0 0.0 1.0
48
1.0 0.0 0.0 0.0 0.99 0.005 0.00499 1e-05 0.6 0.2 0.19998 2e-05 0.2 0.4 0.39996 4e-05 1.0 0.0 0.0 0.0 0.9799657 0.00999965 0.009984651 4.999825e-05 0.5 0.2 0.29997 3e-05 0.1 0.5 0.39994 6e-05 1.0 0.0 0.0 0.0 0.95 0.03 0.01998 2e-05 0.4 0.3 0.29996 4e-05 0.005 0.55 0.4449 0.0001
8
0.5 0.5 0.8 0.2 0.9 0.1 0.95 0.05
192
1.0 0.0 0.0 0.0 0.96 0.03 0.009 0.001 0.5 0.2 0.2 0.1 0.3 0.3 0.2 0.2 1.0 0.0 0.0 0.0 0.96 0.03 0.009 0.001 0.5 0.2 0.2 0.1 0.3 0.3 0.2 0.2 1.0 0.0 0.0 0.0 0.9 0.07 0.02 0.01 0.3 0.3 0.2 0.2 0.2 0.2 0.3 0.3 1.0 0.0 0.0 0.0 0.98 0.019 0.0009 0.0001 0.8 0.15 0.03 0.02 0.5 0.2 0.2 0.1 1.0 0.0 0.0 0.0 0.98 0.019 0.0009 0.0001 0.8 0.15 0.03 0.02 0.5 0.2 0.2 0.1 1.0 0.0 0.0 0.0 0.95 0.04 0.007 0.003 0.5 0.2 0.2 0.1 0.3 0.3 0.2 0.2 1.0 0.0 0.0 0.0 0.99 0.0099 9e-05 1e-05 0.95 0.02 0.02 0.01 0.9 0.07 0.02 0.01 1.0 0.0 0.0 0.0 0.99 0.0099 9e-05 1e-05 0.95 0.02 0.02 0.01 0.9 0.07 0.02 0.01 1.0 0.0 0.0 0.0 0.97 0.025 0.003 0.002 0.9 0.07 0.02 0.01 0.6 0.3 0.07 0.03 1.0 0.0 0.0 0.0 0.999 0.00099 9e-06 1e-06 0.99 0.007 0.002 0.001 0.95 0.03 0.01 0.01 1.0 0.0 0.0 0.0 0.999 0.00099 9e-06 1e-06 0.99 0.007 0.002 0.001 0.95 0.03 0.01 0.01 1.0 0.0 0.0 0.0 0.99 0.007 0.002 0.001 0.95 0.03 0.01 0.01 0.9 0.05 0.03 0.02
24
0.5 0.3 0.2 0.0 0.0 0.1 0.6 0.3 0.0 0.0 0.0 1.0 0.7 0.3 0.0 0.0 0.1 0.6 0.3 0.0 0.0 0.0 0.7 0.3
20
1.0 0.0 1.0 0.0 1.0 0.0 1.0 0.0 1.0 0.0 0.1 0.9 0.05 0.95 0.2 0.8 0.6 0.4 0.1 0.9
16
1.0 0.0 0.0 0.0 0.999 0.000998 1e-06 1e-06 0.9 0.05 0.03 0.02 0.8 0.1 0.06 0.04
36
0.001 0.004 0.995 0.1 0.3 0.6 0.3 0.3 0.4 0.002 0.008 0.99 0.5 0.3 0.2 0.6 0.3 0.1 0.03 0.15 0.82 0.9 0.07 0.03 0.99 0.009999 1e-06 0.3 0.3 0.4 0.95 0.04 0.01 0.999998 1e-06 1e-06